Rodando pra 1h

Optimize a model with 360087 rows, 539172 columns and 13278919 nonzeros
Coefficient statistics:
  Matrix range    [1e+00, 1e+04]
  Objective range [2e-01, 2e-01]
  Bounds range    [1e+00, 1e+04]
  RHS range       [1e+00, 1e+04]
Presolve removed 0 rows and 0 columns (presolve time = 5s) ...
Presolve removed 2 rows and 2 columns (presolve time = 10s) ...
Presolve removed 2 rows and 2 columns (presolve time = 24s) ...
Presolve removed 4 rows and 4 columns (presolve time = 31s) ...
Presolve removed 4 rows and 4 columns (presolve time = 42s) ...
Presolve removed 4 rows and 4 columns (presolve time = 45s) ...
Presolve removed 4 rows and 4 columns (presolve time = 51s) ...
Presolve removed 4 rows and 4 columns (presolve time = 59s) ...
Presolve removed 4 rows and 4 columns (presolve time = 63s) ...
Presolve removed 4 rows and 4 columns (presolve time = 67s) ...
Presolve removed 4 rows and 4 columns (presolve time = 71s) ...
Presolve removed 4 rows and 4 columns (presolve time = 78s) ...
Presolve removed 4 rows and 4 columns (presolve time = 81s) ...
Presolve removed 4 rows and 4 columns (presolve time = 87s) ...
Presolve removed 4 rows and 4 columns (presolve time = 90s) ...
Presolve removed 4 rows and 4 columns (presolve time = 97s) ...
Presolve removed 4 rows and 4 columns (presolve time = 102s) ...
Presolve removed 4 rows and 4 columns (presolve time = 107s) ...
Presolve removed 4 rows and 4 columns (presolve time = 112s) ...
Presolve removed 4 rows and 4 columns (presolve time = 117s) ...
Presolve removed 4 rows and 4 columns (presolve time = 122s) ...
Presolve removed 4 rows and 4 columns (presolve time = 127s) ...
Presolve removed 4 rows and 4 columns (presolve time = 132s) ...
Presolve removed 4 rows and 4 columns (presolve time = 137s) ...
Presolve removed 4 rows and 4 columns (presolve time = 142s) ...
Presolve removed 4 rows and 4 columns (presolve time = 147s) ...
Presolve removed 4 rows and 4 columns (presolve time = 153s) ...
Presolve removed 4 rows and 4 columns (presolve time = 155s) ...
Presolve removed 4 rows and 4 columns (presolve time = 160s) ...
Presolve removed 4 rows and 4 columns (presolve time = 166s) ...
Presolve removed 4 rows and 4 columns (presolve time = 172s) ...
Presolve removed 4 rows and 4 columns (presolve time = 177s) ...
Presolve removed 4 rows and 4 columns (presolve time = 188s) ...
Presolve removed 4 rows and 4 columns (presolve time = 192s) ...
Presolve removed 4 rows and 4 columns (presolve time = 211s) ...
Presolve removed 4 rows and 4 columns
Presolve time: 211.07s
Presolved: 360083 rows, 539168 columns, 13278895 nonzeros
Variable types: 359400 continuous, 179768 integer (179764 binary)
Optimize a model with 360083 rows, 539168 columns and 13278895 nonzeros
Coefficient statistics:
  Matrix range    [1e+00, 1e+04]
  Objective range [2e-01, 2e-01]
  Bounds range    [1e+00, 1e+04]
  RHS range       [1e+00, 2e+04]
Presolve removed 0 rows and 0 columns (presolve time = 6s) ...
Presolved: 360083 rows, 539168 columns, 13278895 nonzeros


Root simplex log...

Iteration    Objective       Primal Inf.    Dual Inf.      Time
       0    0.0000000e+00   1.810585e+03   0.000000e+00    257s
    1241    0.0000000e+00   0.000000e+00   0.000000e+00    257s

Root relaxation: objective 0.000000e+00, 1241 iterations, 11.35 seconds

    Nodes    |    Current Node    |     Objective Bounds      |     Work
 Expl Unexpl |  Obj  Depth IntInf | Incumbent    BestBd   Gap | It/Node Time

     0     0    0.00000    0  620          -    0.00000      -     - 3600s

Explored 0 nodes (152825 simplex iterations) in 3600.51 seconds
Thread count was 1 (of 4 available processors)

Time limit reached
Best objective -, best bound 0.000000000000e+00, gap -
Tempo: 3585.84 segundos

Error code = 10004
Var::get
